c smth
s vc 200 140
200
199
196
194
193
192
188
187
186
183
182
180
179
176
175
174
173
172
171
169
167
166
162
161
158
157
155
154
153
152
151
149
148
146
145
144
143
142
141
140
138
136
135
134
131
130
126
125
124
123
121
120
119
118
116
115
114
113
112
111
110
109
108
107
105
103
102
101
100
98
96
95
94
91
89
88
87
86
84
83
82
81
79
78
77
76
75
71
68
67
66
65
64
63
61
60
59
58
57
56
55
54
53
52
51
50
49
48
47
46
44
42
41
40
39
38
37
35
34
32
31
28
26
25
24
22
20
19
17
15
13
12
11
10
8
6
5
3
2
1